
;this file is automatically generated: Fri Jan 03 16:26:56 GMT 2020

;declarations generated

(declare-fun oclExcludes ( Int Int) Bool)
(declare-fun type_28b3b28a_e20d_4e84_9cb5_3355d4de9dc0_Class14 ( Int) Bool)
(declare-fun type_28b3b28a_e20d_4e84_9cb5_3355d4de9dc0_Class16 ( Int) Bool)
(declare-fun class16_Class16IntAttr5 ( Int) Int)
(declare-fun class16_Class16IntAttr6 ( Int) Int)
(declare-fun class16_Class16IntAttr4 ( Int) Int)
(declare-fun Cardinality ( Int) Int)
(declare-fun obj_1cf60351_cb79_4a63_9d71_2c079496d9de ( Int) Int)
(declare-fun oclSelect ( Int Bool) Int)
(declare-fun class16_Class16BoolAttr3 ( Int) Bool)
(declare-fun class16_Class16BoolAttr1 ( Int) Bool)
(declare-fun class16_Class16BoolAttr0 ( Int) Bool)
(declare-fun Enum0 ( Int) Int)
(declare-fun Enum1 ( Int) Int)
(declare-fun Enum2 ( Int) Int)
(declare-fun container_ ( Int) Int)
(declare-fun oclIncludes ( Int Int) Bool)
(declare-fun ObjAt ( Int Int) Int)

;formula(s) generated
(assert (forall ((p Int)) (=> ( type_28b3b28a_e20d_4e84_9cb5_3355d4de9dc0_Class16 p )  (and (>= ( Enum1 ( obj_1cf60351_cb79_4a63_9d71_2c079496d9de p )  )  0) (<= ( Enum1 ( obj_1cf60351_cb79_4a63_9d71_2c079496d9de p )  )  5)))))
(assert (! (exists ((c1 Int)) (and (and ( type_28b3b28a_e20d_4e84_9cb5_3355d4de9dc0_Class16 c1 )  ( type_28b3b28a_e20d_4e84_9cb5_3355d4de9dc0_Class14 c1 ) ) (<= ( class16_Class16IntAttr4 ( obj_1cf60351_cb79_4a63_9d71_2c079496d9de c1 )  )  0))):named l0))
(assert (! (forall ((c1 Int)) (=> (and ( type_28b3b28a_e20d_4e84_9cb5_3355d4de9dc0_Class16 c1 )  ( type_28b3b28a_e20d_4e84_9cb5_3355d4de9dc0_Class14 c1 ) ) (> ( class16_Class16IntAttr4 ( obj_1cf60351_cb79_4a63_9d71_2c079496d9de c1 )  )  12))):named l1))
(assert (! (or (forall ((v Int)) (=> (and ( type_28b3b28a_e20d_4e84_9cb5_3355d4de9dc0_Class16 v )  ( type_28b3b28a_e20d_4e84_9cb5_3355d4de9dc0_Class14 v ) ) (> ( class16_Class16IntAttr5 ( obj_1cf60351_cb79_4a63_9d71_2c079496d9de v )  )  8))) (forall ((v Int)) (=> (and ( type_28b3b28a_e20d_4e84_9cb5_3355d4de9dc0_Class16 v )  ( type_28b3b28a_e20d_4e84_9cb5_3355d4de9dc0_Class14 v ) ) (or ( class16_Class16BoolAttr1 ( obj_1cf60351_cb79_4a63_9d71_2c079496d9de v )  )  (and (forall ((v Int)) (=> (and ( type_28b3b28a_e20d_4e84_9cb5_3355d4de9dc0_Class16 v )  ( type_28b3b28a_e20d_4e84_9cb5_3355d4de9dc0_Class14 v ) ) ( class16_Class16BoolAttr3 ( obj_1cf60351_cb79_4a63_9d71_2c079496d9de v )  ) )) (forall ((c6_1 Int)(c6_2 Int)) (=> (and (and ( type_28b3b28a_e20d_4e84_9cb5_3355d4de9dc0_Class16 c6_1 )  ( type_28b3b28a_e20d_4e84_9cb5_3355d4de9dc0_Class14 c6_1 ) ) (and ( type_28b3b28a_e20d_4e84_9cb5_3355d4de9dc0_Class16 c6_2 )  ( type_28b3b28a_e20d_4e84_9cb5_3355d4de9dc0_Class14 c6_2 ) )) (< ( class16_Class16IntAttr4 ( obj_1cf60351_cb79_4a63_9d71_2c079496d9de c6_1 )  )  ( class16_Class16IntAttr6 ( obj_1cf60351_cb79_4a63_9d71_2c079496d9de c6_2 )  ) )))))))):named l2))
(assert (! (forall ((c6_1 Int)(c6_2 Int)) (=> (and (and ( type_28b3b28a_e20d_4e84_9cb5_3355d4de9dc0_Class16 c6_1 )  ( type_28b3b28a_e20d_4e84_9cb5_3355d4de9dc0_Class14 c6_1 ) ) (and ( type_28b3b28a_e20d_4e84_9cb5_3355d4de9dc0_Class16 c6_2 )  ( type_28b3b28a_e20d_4e84_9cb5_3355d4de9dc0_Class14 c6_2 ) )) (or (<= ( class16_Class16IntAttr4 ( obj_1cf60351_cb79_4a63_9d71_2c079496d9de c6_1 )  )  ( class16_Class16IntAttr6 ( obj_1cf60351_cb79_4a63_9d71_2c079496d9de c6_2 )  ) ) (and (forall ((c6_1 Int)(c6_2 Int)) (=> (and (and ( type_28b3b28a_e20d_4e84_9cb5_3355d4de9dc0_Class16 c6_1 )  ( type_28b3b28a_e20d_4e84_9cb5_3355d4de9dc0_Class14 c6_1 ) ) (and ( type_28b3b28a_e20d_4e84_9cb5_3355d4de9dc0_Class16 c6_2 )  ( type_28b3b28a_e20d_4e84_9cb5_3355d4de9dc0_Class14 c6_2 ) )) (= ( class16_Class16IntAttr5 ( obj_1cf60351_cb79_4a63_9d71_2c079496d9de c6_1 )  )  ( class16_Class16IntAttr6 ( obj_1cf60351_cb79_4a63_9d71_2c079496d9de c6_2 )  ) ))) (forall ((v Int)) (=> (and ( type_28b3b28a_e20d_4e84_9cb5_3355d4de9dc0_Class16 v )  ( type_28b3b28a_e20d_4e84_9cb5_3355d4de9dc0_Class14 v ) ) (<= ( class16_Class16IntAttr5 ( obj_1cf60351_cb79_4a63_9d71_2c079496d9de v )  )  10))))))):named l3))
(assert (! (forall ((v Int)) (=> (and ( type_28b3b28a_e20d_4e84_9cb5_3355d4de9dc0_Class16 v )  ( type_28b3b28a_e20d_4e84_9cb5_3355d4de9dc0_Class14 v ) ) (or (not (= ( class16_Class16IntAttr4 ( obj_1cf60351_cb79_4a63_9d71_2c079496d9de v )  )  7) ) (and (forall ((v Int)) (=> (and ( type_28b3b28a_e20d_4e84_9cb5_3355d4de9dc0_Class16 v )  ( type_28b3b28a_e20d_4e84_9cb5_3355d4de9dc0_Class14 v ) ) (= ( Enum1 ( obj_1cf60351_cb79_4a63_9d71_2c079496d9de v )  )  2))) (forall ((v Int)) (=> (and ( type_28b3b28a_e20d_4e84_9cb5_3355d4de9dc0_Class16 v )  ( type_28b3b28a_e20d_4e84_9cb5_3355d4de9dc0_Class14 v ) ) (not ( class16_Class16BoolAttr0 ( obj_1cf60351_cb79_4a63_9d71_2c079496d9de v )  )  ))))))):named l4))
(assert (! (forall ((v Int)) (=> (and ( type_28b3b28a_e20d_4e84_9cb5_3355d4de9dc0_Class16 v )  ( type_28b3b28a_e20d_4e84_9cb5_3355d4de9dc0_Class14 v ) ) (not (= ( class16_Class16IntAttr6 ( obj_1cf60351_cb79_4a63_9d71_2c079496d9de v )  )  3) ))):named l5))
(assert (exists ((o Int)) (and ( type_28b3b28a_e20d_4e84_9cb5_3355d4de9dc0_Class16 ( obj_1cf60351_cb79_4a63_9d71_2c079496d9de o )  )  ( type_28b3b28a_e20d_4e84_9cb5_3355d4de9dc0_Class14 ( obj_1cf60351_cb79_4a63_9d71_2c079496d9de o )  ) )))

 ;end of formula 